
List of user-set options:

                                    Name   Value                used
                           compl_inf_tol = 1                     yes
                         constr_viol_tol = 1                     yes
                            dual_inf_tol = 1000                  yes
                           linear_solver = ma97                  yes
                              ma86_small = 1e-30                  no
                                  ma86_u = 0.0001                 no
                              ma97_order = best                  yes
                              ma97_small = 1e-30                 yes
                            ma97_switch1 = at_start              yes
                            ma97_switch2 = od_hd_reuse           yes
                                  ma97_u = 1e-06                 yes
                               ma97_umax = 0.5                   yes
                                max_iter = 1000                  yes
                    max_refinement_steps = 20                    yes
                    min_refinement_steps = 5                     yes
                                 mu_init = 1e-06                 yes
           mu_superlinear_decrease_power = 1.25                  yes
                   nlp_scaling_min_value = 1e-08                 yes
                        option_file_name = Preset_Case_503_pf.opt  yes
                             output_file = ./tmp/Preset_Case_503_pf.output  yes
                      print_user_options = yes                   yes
        required_infeasibility_reduction = 1                      no
                                     tol = 1e-08                 yes
                   warm_start_bound_frac = 1e-20                 yes
                   warm_start_bound_push = 1e-20                 yes
                   warm_start_init_point = yes                   yes
              warm_start_mult_bound_push = 1e-20                 yes
                warm_start_mult_init_max = 1e+40                 yes
             warm_start_slack_bound_frac = 1e-20                 yes
             warm_start_slack_bound_push = 1e-20                 yes

******************************************************************************
This program contains Ipopt, a library for large-scale nonlinear optimization.
 Ipopt is released as open source code under the Eclipse Public License (EPL).
         For more information visit http://projects.coin-or.org/Ipopt
******************************************************************************

This is Ipopt version 3.12.10, running with linear solver ma97.

Number of nonzeros in equality constraint Jacobian...:   123443
Number of nonzeros in inequality constraint Jacobian.:      213
Number of nonzeros in Lagrangian Hessian.............:    49069

Total number of variables............................:    31591
                     variables with only lower bounds:    12912
                variables with lower and upper bounds:    15130
                     variables with only upper bounds:        0
Total number of equality constraints.................:    31483
Total number of inequality constraints...............:       25
        inequality constraints with only lower bounds:        4
   inequality constraints with lower and upper bounds:        0
        inequality constraints with only upper bounds:       21

iter    objective    inf_pr   inf_du lg(mu)  ||d||  lg(rg) alpha_du alpha_pr  ls
   0 -5.2452246e+00 4.06e-03 1.02e+00  -6.0 0.00e+00    -  0.00e+00 0.00e+00   0
   1 -5.2502357e+00 8.88e+00 3.64e+01  -6.0 3.12e+05    -  1.06e-04 1.48e-03h  1
   2 -5.2501971e+00 8.88e+00 3.64e+01  -6.0 2.49e+03    -  1.08e-04 3.29e-05h  1
   3 -5.2466056e+00 8.87e+00 4.79e+01  -6.0 2.54e+04    -  8.62e-05 1.30e-03h  2
   4 -5.2449533e+00 8.86e+00 7.29e+01  -6.0 3.60e+03    -  1.47e-01 1.46e-03h  3
   5 -5.2448700e+00 8.86e+00 7.97e+01  -6.0 8.72e+04    -  1.50e-03 7.80e-05h  8
   6 -5.2446706e+00 8.86e+00 8.12e+01  -6.0 3.56e+03    -  3.50e-03 1.77e-04h 12
   7 -5.2445691e+00 8.86e+00 8.27e+01  -6.0 3.56e+03    -  3.31e-03 9.01e-05h 13
   8 -5.2445175e+00 8.86e+00 8.66e+01  -6.0 3.57e+03    -  8.42e-03 4.58e-05h 14
   9 -5.2417292e+00 8.83e+00 8.64e+01  -6.0 3.56e+03    -  2.48e-03 2.48e-03s 21
iter    objective    inf_pr   inf_du lg(mu)  ||d||  lg(rg) alpha_du alpha_pr  ls
  10r-5.2417292e+00 8.83e+00 9.99e+02   0.9 0.00e+00    -  0.00e+00 0.00e+00R  1
  11r-5.2466868e+00 8.83e+00 2.31e+03   0.9 8.13e+05    -  1.17e-07 3.66e-08f  1
  12 -5.2507612e+00 8.83e+00 8.70e+02  -6.0 3.30e+05    -  7.07e-06 7.40e-04h  1
  13 -5.2507168e+00 8.83e+00 8.61e+02  -6.0 1.39e+05    -  1.04e-02 8.25e-05h  9
  14 -5.2506774e+00 8.83e+00 8.61e+02  -6.0 1.30e+05    -  8.87e-04 8.84e-05h  9
  15 -5.2506341e+00 8.82e+00 8.51e+02  -6.0 1.25e+05    -  1.17e-02 9.17e-05h  9
  16 -5.2506141e+00 8.82e+00 8.50e+02  -6.0 1.15e+05    -  1.09e-03 9.99e-05h  9
  17 -5.2505947e+00 8.82e+00 8.42e+02  -6.0 1.10e+05    -  9.15e-03 9.70e-05h  9
  18 -5.2545575e+00 2.79e+01 1.51e+04  -6.0 1.00e+05    -  1.36e-03 1.46e-02h  1
  19 -5.2984681e+00 3.02e+01 8.76e+05  -6.0 3.29e+04    -  9.03e-03 5.65e-02h  1
iter    objective    inf_pr   inf_du lg(mu)  ||d||  lg(rg) alpha_du alpha_pr  ls
  20 -5.3021839e+00 3.03e+01 8.72e+05  -6.0 5.90e+04    -  3.68e-05 1.97e-03h  1
  21 -5.3044405e+00 3.70e+01 8.58e+05  -6.0 2.54e+04    -  5.29e-02 2.95e-02h  1
  22 -5.3037709e+00 3.70e+01 8.57e+05  -6.0 5.19e+02  -4.0 1.35e-06 9.31e-04h  1
  23 -5.2643667e+00 3.51e+01 7.77e+05  -6.0 5.28e+02  -4.5 1.46e-03 5.17e-02h  1
  24 -5.2570131e+00 3.46e+01 7.66e+05  -6.0 4.86e+02  -5.0 6.05e-02 1.20e-02h  2
  25 -5.2554782e+00 3.46e+01 7.64e+05  -6.0 4.78e+02  -4.5 1.46e-01 2.63e-03h  4
  26 -5.2548406e+00 3.45e+01 7.63e+05  -6.0 4.80e+02  -5.0 1.73e-01 1.13e-03h  8
  27 -5.2546254e+00 3.45e+01 7.63e+05  -6.0 4.76e+02  -4.6 1.79e-01 3.76e-04h 10
  28 -5.2545878e+00 3.45e+01 7.63e+05  -6.0 4.79e+02  -5.1 1.35e-01 6.71e-05h 12
  29 -5.1457220e+00 2.79e+01 2.56e+05  -6.0 4.76e+02  -4.6 1.45e-01 1.91e-01h  1
iter    objective    inf_pr   inf_du lg(mu)  ||d||  lg(rg) alpha_du alpha_pr  ls
  30 -5.1291670e+00 1.87e+01 2.16e+05  -6.0 3.69e+02  -5.1 1.48e-04 3.30e-01h  1
  31 -5.1443303e+00 1.78e+01 2.09e+05  -6.0 1.84e+02  -5.6 1.78e-01 4.92e-02h  1
  32 -5.4547007e+00 1.36e+01 1.32e+06  -6.0 1.97e+02  -6.1 1.75e-01 8.79e-01h  1
  33r-5.4547007e+00 1.36e+01 1.00e+03   0.6 0.00e+00  -4.7 0.00e+00 3.11e-07R  5
  34r-5.5037118e+00 1.37e+01 1.00e+03   0.6 3.35e+06    -  4.07e-08 5.18e-08f  1
  35r-5.5092819e+00 1.37e+01 1.31e+03   0.6 7.80e+04    -  1.74e-06 6.97e-07f  1
  36r-5.4965888e+00 1.36e+01 1.29e+03   0.6 4.79e+04    -  2.38e-06 5.16e-06f  1
  37 -5.4967982e+00 1.36e+01 1.15e+03  -6.0 4.07e+01    -  2.78e-06 3.20e-03h  1
  38 -5.4974714e+00 1.34e+01 1.14e+03  -6.0 4.05e+01    -  4.57e-03 1.06e-02h  1
  39 -5.4981846e+00 1.33e+01 1.13e+03  -6.0 3.98e+01    -  2.82e-02 1.15e-02h  1
iter    objective    inf_pr   inf_du lg(mu)  ||d||  lg(rg) alpha_du alpha_pr  ls
  40 -5.4970418e+00 1.31e+01 1.11e+03  -6.0 2.71e+01    -  2.59e-02 1.52e-02h  1
  41 -5.4897050e+00 1.16e+01 9.85e+02  -6.0 2.68e+01    -  1.47e-02 1.11e-01h  1
  42 -5.4889473e+00 1.12e+01 9.48e+02  -6.0 2.34e+01    -  1.21e-01 3.72e-02h  1
  43 -5.4868046e+00 9.28e+00 7.87e+02  -6.0 2.27e+01    -  3.99e-02 1.70e-01h  1
  44 -5.4867396e+00 6.95e+00 5.89e+02  -6.0 1.94e+01    -  6.39e-02 2.51e-01h  1
  45 -5.4922520e+00 4.21e+00 3.57e+02  -6.0 1.52e+01    -  9.59e-02 3.94e-01h  1
  46 -5.4939238e+00 3.95e+00 3.35e+02  -6.0 1.02e+01    -  6.15e-01 6.27e-02h  1
  47 -5.5218454e+00 2.76e+00 2.34e+02  -6.0 1.35e+01    -  1.81e-01 3.01e-01h  1
  48 -5.5234979e+00 2.56e+00 2.17e+02  -6.0 8.66e+00    -  4.84e-01 7.29e-02h  1
  49 -5.5271459e+00 2.19e+00 1.85e+02  -6.0 7.80e+00    -  3.89e-01 1.46e-01h  1
iter    objective    inf_pr   inf_du lg(mu)  ||d||  lg(rg) alpha_du alpha_pr  ls
  50 -5.5316650e+00 1.99e+00 1.68e+02  -6.0 1.00e+01    -  1.19e-01 9.05e-02h  1
  51 -5.5356955e+00 1.67e+00 1.41e+02  -6.0 7.89e+00    -  2.94e-01 1.62e-01h  1
  52 -5.5378102e+00 1.56e+00 1.32e+02  -6.0 8.42e+00    -  5.06e-01 6.27e-02h  1
  53 -5.5620983e+00 7.56e-01 2.36e+02  -6.0 1.52e+01    -  3.31e-01 5.22e-01h  1
  54 -5.5671910e+00 6.98e-01 2.16e+02  -6.0 6.78e+01  -5.2 6.32e-02 7.99e-02h  1
  55 -5.5741019e+00 5.96e-01 1.85e+02  -6.0 2.27e+01    -  3.54e-01 1.51e-01h  1
  56 -5.5846128e+00 4.91e-01 2.08e+02  -6.0 3.36e+01    -  5.65e-01 2.00e-01h  1
  57 -5.5879003e+00 4.58e-01 1.97e+02  -6.0 9.60e+01  -5.7 7.01e-02 6.75e-02h  1
  58 -5.5880230e+00 4.57e-01 1.97e+02  -6.0 8.88e+01    -  1.29e-02 2.49e-03h  1
  59 -5.5936202e+00 4.07e-01 2.30e+02  -6.0 8.93e+01    -  1.65e-01 1.13e-01f  1
iter    objective    inf_pr   inf_du lg(mu)  ||d||  lg(rg) alpha_du alpha_pr  ls
  60 -5.6265774e+00 4.09e-01 1.93e+03  -6.0 8.75e+01    -  7.62e-01 4.95e-01h  1
  61 -5.6265021e+00 3.93e-01 1.20e+05  -6.0 6.08e+00  -3.5 1.67e-02 3.88e-02h  1
  62 -5.6336804e+00 3.74e-01 1.32e+05  -6.0 2.12e+02    -  1.81e-02 7.02e-02h  1
  63 -5.6402345e+00 3.58e-01 1.58e+05  -6.0 2.22e+02    -  2.33e-01 6.79e-02f  1
  64 -5.6606392e+00 3.93e-01 1.09e+06  -6.0 2.42e+02    -  1.18e-01 2.06e-01f  1
  65 -5.6808851e+00 5.64e-01 1.75e+07  -6.0 1.82e+02    -  2.17e-01 2.98e-01h  1
  66 -5.6880761e+00 4.86e-01 1.47e+07  -6.0 2.04e+02    -  9.67e-03 1.48e-01h  1
  67 -5.6925125e+00 3.12e-01 9.62e+06  -6.0 1.32e+02    -  4.17e-01 3.69e-01f  1
  68 -5.7070031e+00 1.86e-01 4.71e+06  -6.0 1.98e+02    -  3.97e-01 4.89e-01h  1
  69 -5.7225314e+00 6.21e-01 2.12e+04  -6.0 2.75e+02    -  4.86e-01 1.00e+00h  1
iter    objective    inf_pr   inf_du lg(mu)  ||d||  lg(rg) alpha_du alpha_pr  ls
  70 -5.7271812e+00 4.70e-01 1.28e+04  -6.0 3.82e+02    -  5.28e-01 3.82e-01h  1
  71 -5.7411763e+00 5.73e+00 9.00e+03  -6.0 5.48e+02    -  3.23e-01 1.00e+00h  1
  72 -5.7447382e+00 4.89e+00 4.87e+03  -6.0 6.61e+02    -  3.30e-01 2.98e-01h  1
  73 -5.7558454e+00 1.81e+01 7.91e+03  -6.0 8.97e+02    -  8.74e-01 1.00e+00h  1
  74 -5.7576442e+00 1.74e+01 3.58e+03  -6.0 2.22e+03    -  1.29e-01 1.11e-01h  1
  75 -5.7617486e+00 1.91e+01 3.36e+04  -6.0 2.13e+03    -  4.10e-01 2.55e-01h  1
  76 -5.7689993e+00 5.16e+01 1.23e+05  -6.0 3.14e+03    -  5.97e-02 4.64e-01h  1
  77 -5.7701685e+00 4.67e+01 7.20e+06  -6.0 7.45e+01  -3.9 2.87e-03 9.64e-02h  1
  78 -5.7704364e+00 4.57e+01 7.04e+06  -6.0 1.05e+04    -  2.20e-02 2.13e-02h  1
  79 -5.7718868e+00 5.83e+01 4.79e+04  -6.0 1.63e+03    -  2.39e-02 1.00e+00h  1
iter    objective    inf_pr   inf_du lg(mu)  ||d||  lg(rg) alpha_du alpha_pr  ls
  80 -5.7722485e+00 1.47e+01 1.20e+04  -6.0 3.73e+00  -4.4 6.24e-01 7.49e-01h  1
  81 -5.7729717e+00 1.30e+01 1.06e+04  -6.0 2.18e+01  -4.9 1.20e-01 1.16e-01h  1
  82 -5.7840676e+00 1.27e+01 1.03e+04  -6.0 4.57e+03    -  4.71e-02 2.59e-02h  1
  83 -5.7843244e+00 1.17e+01 1.74e+04  -6.0 7.36e+02    -  5.08e-01 7.71e-02h  1
  84 -5.7882915e+00 7.97e+00 1.43e+04  -6.0 6.95e+02    -  6.19e-01 4.46e-01h  1
  85 -5.7907404e+00 7.09e+00 2.90e+04  -6.0 9.44e+02    -  4.48e-01 1.89e-01h  1
  86 -5.7953642e+00 6.64e+00 2.83e+04  -6.0 1.01e+03    -  3.75e-01 2.77e-01h  1
  87 -5.8048815e+00 6.43e+00 7.37e+04  -6.0 7.94e+02    -  9.69e-01 5.22e-01h  1
  88 -5.8079181e+00 5.47e+00 2.59e+05  -6.0 1.94e+02  -5.4 1.18e-02 1.50e-01h  1
  89 -5.8124617e+00 3.80e+00 1.80e+05  -6.0 6.86e+01  -5.8 1.59e-01 3.05e-01h  1
iter    objective    inf_pr   inf_du lg(mu)  ||d||  lg(rg) alpha_du alpha_pr  ls
  90r-5.8124617e+00 3.80e+00 1.00e+03   0.5 0.00e+00  -6.3 0.00e+00 3.54e-07R  2
  91r-6.1350765e+00 3.80e+00 1.00e+03   0.5 5.67e+04    -  1.89e-06 7.61e-07f  1
  92 -6.1309906e+00 3.75e+00 4.51e+03  -6.0 1.23e+01    -  2.84e-06 1.28e-02h  1
  93 -6.0898161e+00 3.26e+00 3.92e+03  -6.0 1.25e+01    -  2.29e-02 1.31e-01h  1
  94 -6.0327358e+00 2.58e+00 3.10e+03  -6.0 1.24e+01    -  2.42e-01 2.09e-01h  1
  95 -5.9019947e+00 1.02e+00 1.23e+03  -6.0 1.37e+01    -  7.50e-01 6.04e-01h  1
  96 -5.8162552e+00 3.29e-02 5.05e+00  -6.0 3.54e+01    -  9.54e-01 1.00e+00h  1
  97 -5.8164255e+00 2.17e-02 2.95e+01  -6.0 1.41e+01  -5.0 9.48e-01 3.79e-01h  1
  98 -5.8166433e+00 1.55e-04 1.21e+00  -6.0 1.47e+00  -4.6 9.71e-01 1.00e+00f  1
  99 -5.8170468e+00 7.60e-04 1.11e-01  -6.0 4.20e+00  -5.0 9.55e-01 1.00e+00h  1
iter    objective    inf_pr   inf_du lg(mu)  ||d||  lg(rg) alpha_du alpha_pr  ls
 100 -5.8180513e+00 5.07e-03 3.58e-01  -6.0 1.08e+01  -5.5 9.99e-01 1.00e+00h  1
 101 -5.8202139e+00 2.44e-02 1.45e+00  -6.0 2.38e+01  -6.0 1.00e+00 1.00e+00h  1
 102 -5.8241565e+00 7.84e-02 3.66e+00  -6.0 4.28e+01  -6.5 1.00e+00 1.00e+00h  1
 103 -5.8279153e+00 1.85e-01 6.07e+00  -6.0 1.93e+02  -6.9 1.00e+00 3.76e-01h  1
 104 -5.8327686e+00 4.45e-01 2.68e+01  -6.0 1.60e+03  -7.4 2.75e-01 6.07e-02h  2
 105 -5.8420145e+00 6.20e-01 2.84e+01  -6.0 2.80e+02  -7.0 1.00e+00 5.27e-01H  1
 106 -5.8566372e+00 4.61e-01 9.79e+00  -6.0 1.41e+02  -7.5 4.86e-01 1.00e+00H  1
 107 -5.8612534e+00 5.98e-01 8.76e+01  -6.0 7.48e+03  -8.0 4.21e-02 9.53e-03h  2
 108 -5.8643410e+00 6.35e-01 5.43e+02  -6.0 8.28e+02  -8.4 1.00e+00 6.29e-02h  2
 109 -5.8647382e+00 7.46e-01 5.04e+02  -6.0 1.23e+04    -  1.07e-01 1.62e-02h  1
iter    objective    inf_pr   inf_du lg(mu)  ||d||  lg(rg) alpha_du alpha_pr  ls
 110 -5.8655550e+00 7.22e-01 2.87e+02  -6.0 1.09e+03    -  4.95e-01 4.34e-02h  1
 111 -5.8690020e+00 1.06e+00 8.03e+01  -6.0 7.60e+02    -  1.00e+00 2.62e-01h  1
 112 -5.8706075e+00 1.49e+00 3.12e+01  -6.0 9.59e+02    -  5.93e-01 1.92e-01h  1
 113 -5.8726721e+00 2.27e+00 1.87e+01  -6.0 7.92e+02    -  1.31e-02 3.94e-01h  1
 114 -5.8729231e+00 1.90e+00 1.78e+01  -6.0 9.80e+02  -8.0 8.26e-03 1.67e-01h  1
 115 -5.8732030e+00 2.12e+01 1.62e+01  -6.0 1.42e+03  -7.6 2.19e-01 1.00e+00H  1
 116 -5.8728917e+00 2.14e+00 2.28e+00  -6.0 3.42e+02    -  6.91e-01 1.00e+00h  1
 117 -5.8724688e+00 9.76e-04 2.28e+00  -6.0 5.29e+00  -7.2 4.04e-01 1.00e+00h  1
 118 -5.8725565e+00 1.54e+00 2.21e+01  -6.0 1.14e+03    -  1.00e+00 2.37e-01h  2
 119 -5.8725888e+00 1.55e+00 4.55e+01  -6.0 2.03e+03    -  5.73e-01 5.83e-02h  1
iter    objective    inf_pr   inf_du lg(mu)  ||d||  lg(rg) alpha_du alpha_pr  ls
 120 -5.8725653e+00 9.99e-01 7.66e+00  -6.0 6.93e+02    -  8.00e-01 1.00e+00H  1
 121 -5.8725723e+00 2.42e-03 2.12e+00  -6.0 1.19e+01  -7.6 7.98e-01 1.00e+00h  1
 122 -5.8727462e+00 8.09e+00 1.71e+00  -6.0 2.19e+03    -  3.43e-01 3.04e-01h  1
 123 -5.8731037e+00 5.66e+01 6.40e+01  -6.0 7.66e+03    -  8.41e-05 6.68e-02H  1
 124 -5.8730492e+00 2.34e+01 1.53e+02  -6.0 5.14e+03    -  6.50e-02 2.43e-01H  1
 125 -5.8731245e+00 1.12e+01 2.83e+01  -6.0 8.28e+02    -  1.00e+00 8.42e-01h  1
 126 -5.8729872e+00 1.62e+00 7.04e-01  -6.0 3.32e+02    -  1.00e+00 1.00e+00h  1
 127 -5.8729853e+00 5.74e-01 2.49e-01  -6.0 1.94e+02    -  1.00e+00 1.00e+00h  1
 128 -5.8729783e+00 8.88e-02 3.85e-02  -6.0 7.66e+01    -  1.00e+00 1.00e+00h  1
 129 -5.8729766e+00 6.05e-03 2.62e-03  -6.0 2.00e+01    -  1.00e+00 1.00e+00h  1
iter    objective    inf_pr   inf_du lg(mu)  ||d||  lg(rg) alpha_du alpha_pr  ls
 130 -5.8729765e+00 4.08e-05 1.77e-05  -6.0 1.64e+00    -  1.00e+00 1.00e+00h  1
 131 -5.8729765e+00 1.86e-09 8.09e-10  -6.0 1.11e-02    -  1.00e+00 1.00e+00h  1
 132 -5.8731162e+00 3.03e+00 9.24e+01  -7.5 5.83e+02    -  4.47e-01 7.65e-01h  1
 133 -5.8731054e+00 7.81e-01 6.59e+00  -7.5 1.48e+02    -  9.54e-01 8.22e-01h  1
 134 -5.8730992e+00 2.30e-02 2.75e-02  -7.5 3.75e+01    -  1.00e+00 1.00e+00h  1
 135 -5.8730991e+00 2.45e-06 7.34e-07  -7.5 4.18e-01    -  1.00e+00 1.00e+00h  1
 136 -5.8730991e+00 2.91e-10 5.16e-11  -7.5 1.79e-04    -  1.00e+00 1.00e+00h  1
 137 -5.8731006e+00 4.29e-03 8.74e-01  -9.0 1.98e+01    -  9.29e-01 8.34e-01h  1
 138 -5.8731008e+00 1.81e-04 2.44e-04  -9.0 3.39e+00    -  1.00e+00 1.00e+00h  1
 139 -5.8731008e+00 2.89e-10 3.52e-09  -9.0 2.81e-03    -  1.00e+00 1.00e+00h  1

Number of Iterations....: 139

                                   (scaled)                 (unscaled)
Objective...............:  -4.5883600110318374e+00   -5.8731008141207521e+00
Dual infeasibility......:   3.5163134462343609e-09    4.5008812111799823e-09
Constraint violation....:   2.8882219239943080e-10    2.8882219239943080e-10
Complementarity.........:   1.2647694673192938e-09    1.6189049181686960e-09
Overall NLP error.......:   3.5163134462343609e-09    4.5008812111799823e-09


Number of objective function evaluations             = 319
Number of objective gradient evaluations             = 138
Number of equality constraint evaluations            = 319
Number of inequality constraint evaluations          = 319
Number of equality constraint Jacobian evaluations   = 143
Number of inequality constraint Jacobian evaluations = 143
Number of Lagrangian Hessian evaluations             = 139
Total CPU secs in IPOPT (w/o function evaluations)   =    299.468
Total CPU secs in NLP function evaluations           =      6.838

EXIT: Optimal Solution Found.
